p tw 169 30421 2 
1 3 
1 4 
1 5 
1 6 
1 7 
1 8 
1 9 
1 10 
1 11 
1 12 
1 13 
1 14 
1 15 
1 27 
1 33 
1 40 
1 44 
1 53 
1 58 
1 66 
1 69 
1 79 
1 89 
1 92 
1 103 
1 105 
1 113 
1 118 
1 120 
1 131 
1 140 
1 144 
1 156 
1 157 
1 164 
2 3 
2 4 
2 5 
2 6 
2 7 
2 8 
2 9 
2 10 
2 11 
2 12 
2 13 
2 15 
2 16 
2 27 
2 28 
2 41 
2 49 
2 54 
2 64 
2 67 
2 76 
2 80 
2 87 
2 93 
2 104 
2 106 
2 112 
2 119 
2 123 
2 132 
2 137 
2 145 
2 148 
2 158 
2 160 
3 4 
3 5 
3 6 
3 7 
3 8 
3 9 
3 10 
3 11 
3 12 
3 13 
3 16 
3 17 
3 29 
3 38 
3 42 
3 46 
3 55 
3 57 
3 68 
3 73 
3 80 
3 81 
3 94 
3 101 
3 107 
3 110 
3 118 
3 120 
3 133 
3 143 
3 146 
3 152 
3 159 
3 167 
4 5 
4 6 
4 7 
4 8 
4 9 
4 10 
4 11 
4 12 
4 13 
4 17 
4 23 
4 30 
4 32 
4 43 
4 50 
4 56 
4 61 
4 69 
4 78 
4 82 
4 85 
4 92 
4 95 
4 108 
4 109 
4 121 
4 125 
4 133 
4 134 
4 147 
4 155 
4 158 
4 160 
5 6 
5 7 
5 8 
5 9 
5 10 
5 11 
5 12 
5 13 
5 18 
5 25 
5 31 
5 37 
5 44 
5 47 
5 54 
5 57 
5 70 
5 71 
5 81 
5 83 
5 96 
5 100 
5 109 
5 117 
5 122 
5 127 
5 134 
5 135 
5 144 
5 148 
5 161 
5 163 
6 7 
6 8 
6 9 
6 10 
6 11 
6 12 
6 13 
6 19 
6 26 
6 32 
6 34 
6 40 
6 45 
6 58 
6 62 
6 71 
6 72 
6 84 
6 90 
6 93 
6 97 
6 107 
6 110 
6 121 
6 123 
6 135 
6 136 
6 149 
6 154 
6 162 
6 165 
7 8 
7 9 
7 10 
7 11 
7 12 
7 13 
7 18 
7 20 
7 33 
7 36 
7 46 
7 48 
7 59 
7 60 
7 66 
7 72 
7 84 
7 85 
7 98 
7 102 
7 108 
7 111 
7 124 
7 130 
7 132 
7 137 
7 146 
7 150 
7 163 
7 168 
8 9 
8 10 
8 11 
8 12 
8 13 
8 21 
8 24 
8 29 
8 34 
8 47 
8 52 
8 59 
8 60 
8 67 
8 73 
8 79 
8 86 
8 95 
8 99 
8 112 
8 116 
8 125 
8 126 
8 136 
8 138 
8 151 
8 153 
8 161 
8 164 
9 10 
9 11 
9 12 
9 13 
9 20 
9 22 
9 28 
9 35 
9 43 
9 48 
9 53 
9 61 
9 70 
9 74 
9 87 
9 91 
9 97 
9 100 
9 113 
9 114 
9 126 
9 128 
9 139 
9 142 
9 151 
9 152 
9 159 
9 165 
10 11 
10 12 
10 13 
10 22 
10 23 
10 30 
10 36 
10 42 
10 49 
10 62 
10 65 
10 75 
10 77 
10 83 
10 88 
10 99 
10 101 
10 106 
10 114 
10 124 
10 127 
10 140 
10 141 
10 149 
10 153 
10 157 
10 166 
11 12 
11 13 
11 21 
11 24 
11 31 
11 37 
11 45 
11 50 
11 56 
11 63 
11 68 
11 76 
11 88 
11 89 
11 98 
11 102 
11 105 
11 115 
11 128 
11 129 
11 139 
11 141 
11 145 
11 154 
11 167 
11 169 
12 13 
12 19 
12 25 
12 38 
12 39 
12 41 
12 51 
12 63 
12 64 
12 74 
12 77 
12 86 
12 90 
12 94 
12 103 
12 111 
12 116 
12 122 
12 129 
12 131 
12 142 
12 147 
12 155 
12 166 
12 168 
13 14 
13 26 
13 35 
13 39 
13 51 
13 52 
13 55 
13 65 
13 75 
13 78 
13 82 
13 91 
13 96 
13 104 
13 115 
13 117 
13 119 
13 130 
13 138 
13 143 
13 150 
13 156 
13 162 
13 169 
14 15 
14 16 
14 17 
14 18 
14 19 
14 20 
14 21 
14 22 
14 23 
14 24 
14 25 
14 26 
14 27 
14 35 
14 40 
14 51 
14 53 
14 55 
14 66 
14 75 
14 79 
14 82 
14 92 
14 96 
14 105 
14 115 
14 118 
14 119 
14 131 
14 138 
14 144 
14 150 
14 157 
14 162 
15 16 
15 17 
15 18 
15 19 
15 20 
15 21 
15 22 
15 23 
15 24 
15 25 
15 26 
15 28 
15 33 
15 41 
15 44 
15 54 
15 58 
15 67 
15 69 
15 80 
15 89 
15 93 
15 103 
15 106 
15 113 
15 119 
15 120 
15 132 
15 140 
15 145 
15 156 
15 158 
15 164 
16 17 
16 18 
16 19 
16 20 
16 21 
16 22 
16 23 
16 24 
16 25 
16 26 
16 27 
16 29 
16 42 
16 49 
16 55 
16 64 
16 68 
16 76 
16 81 
16 87 
16 94 
16 104 
16 107 
16 112 
16 120 
16 123 
16 133 
16 137 
16 146 
16 148 
16 159 
16 160 
17 18 
17 19 
17 20 
17 21 
17 22 
17 23 
17 24 
17 25 
17 26 
17 30 
17 38 
17 43 
17 46 
17 56 
17 57 
17 69 
17 73 
17 80 
17 82 
17 95 
17 101 
17 108 
17 110 
17 118 
17 121 
17 134 
17 143 
17 147 
17 152 
17 160 
17 167 
18 19 
18 20 
18 21 
18 22 
18 23 
18 24 
18 25 
18 26 
18 31 
18 36 
18 44 
18 48 
18 57 
18 60 
18 66 
18 70 
18 83 
18 84 
18 96 
18 102 
18 108 
18 109 
18 122 
18 130 
18 132 
18 135 
18 146 
18 148 
18 161 
18 168 
19 20 
19 21 
19 22 
19 23 
19 24 
19 25 
19 26 
19 32 
19 39 
19 41 
19 45 
19 58 
19 63 
19 71 
19 74 
19 84 
19 86 
19 94 
19 97 
19 110 
19 111 
19 122 
19 123 
19 131 
19 136 
19 147 
19 149 
19 162 
19 166 
20 21 
20 22 
20 23 
20 24 
20 25 
20 26 
20 28 
20 33 
20 43 
20 46 
20 53 
20 59 
20 70 
20 72 
20 85 
20 91 
20 97 
20 98 
20 111 
20 114 
20 124 
20 128 
20 137 
20 142 
20 150 
20 151 
20 159 
20 163 
21 22 
21 23 
21 24 
21 25 
21 26 
21 31 
21 34 
21 45 
21 47 
21 56 
21 60 
21 68 
21 73 
21 86 
21 88 
21 98 
21 99 
21 105 
21 112 
21 125 
21 129 
21 138 
21 139 
21 145 
21 151 
21 164 
21 169 
22 23 
22 24 
22 25 
22 26 
22 30 
22 35 
22 42 
22 48 
22 61 
22 65 
22 74 
22 77 
22 83 
22 87 
22 99 
22 100 
22 106 
22 113 
22 124 
22 126 
22 139 
22 141 
22 149 
22 152 
22 157 
22 165 
23 24 
23 25 
23 26 
23 32 
23 36 
23 49 
23 50 
23 61 
23 62 
23 75 
23 78 
23 85 
23 88 
23 92 
23 101 
23 109 
23 114 
23 125 
23 127 
23 133 
23 140 
23 153 
23 155 
23 158 
23 166 
24 25 
24 26 
24 29 
24 37 
24 50 
24 52 
24 59 
24 63 
24 67 
24 76 
24 79 
24 89 
24 95 
24 102 
24 115 
24 116 
24 126 
24 128 
24 136 
24 141 
24 153 
24 154 
24 161 
24 167 
25 26 
25 37 
25 38 
25 47 
25 51 
25 54 
25 64 
25 71 
25 77 
25 81 
25 90 
25 100 
25 103 
25 116 
25 117 
25 127 
25 129 
25 134 
25 142 
25 144 
25 155 
25 163 
25 168 
26 34 
26 39 
26 40 
26 52 
26 62 
26 65 
26 72 
26 78 
26 90 
26 91 
26 93 
26 104 
26 107 
26 117 
26 121 
26 130 
26 135 
26 143 
26 154 
26 156 
26 165 
26 169 
27 28 
27 29 
27 30 
27 31 
27 32 
27 33 
27 34 
27 35 
27 36 
27 37 
27 38 
27 39 
27 40 
27 49 
27 53 
27 64 
27 66 
27 76 
27 79 
27 87 
27 92 
27 104 
27 105 
27 112 
27 118 
27 123 
27 131 
27 137 
27 144 
27 148 
27 157 
27 160 
28 29 
28 30 
28 31 
28 32 
28 33 
28 34 
28 35 
28 36 
28 37 
28 38 
28 39 
28 41 
28 43 
28 53 
28 54 
28 67 
28 70 
28 80 
28 91 
28 93 
28 97 
28 106 
28 114 
28 119 
28 128 
28 132 
28 142 
28 145 
28 151 
28 158 
28 159 
29 30 
29 31 
29 32 
29 33 
29 34 
29 35 
29 36 
29 37 
29 38 
29 39 
29 42 
29 52 
29 55 
29 59 
29 67 
29 68 
29 79 
29 81 
29 94 
29 95 
29 107 
29 116 
29 120 
29 126 
29 133 
29 136 
29 146 
29 153 
29 159 
29 161 
30 31 
30 32 
30 33 
30 34 
30 35 
30 36 
30 37 
30 38 
30 39 
30 42 
30 43 
30 56 
30 65 
30 69 
30 77 
30 82 
30 83 
30 95 
30 99 
30 106 
30 108 
30 121 
30 124 
30 134 
30 141 
30 147 
30 149 
30 157 
30 160 
31 32 
31 33 
31 34 
31 35 
31 36 
31 37 
31 38 
31 39 
31 44 
31 45 
31 56 
31 57 
31 68 
31 70 
31 83 
31 88 
31 96 
31 98 
31 105 
31 109 
31 122 
31 129 
31 135 
31 139 
31 145 
31 148 
31 161 
31 169 
32 33 
32 34 
32 35 
32 36 
32 37 
32 38 
32 39 
32 45 
32 50 
32 58 
32 61 
32 71 
32 78 
32 84 
32 85 
32 92 
32 97 
32 109 
32 110 
32 123 
32 125 
32 133 
32 136 
32 149 
32 155 
32 158 
32 162 
33 34 
33 35 
33 36 
33 37 
33 38 
33 39 
33 44 
33 46 
33 58 
33 59 
33 69 
33 72 
33 85 
33 89 
33 98 
33 103 
33 111 
33 113 
33 120 
33 124 
33 137 
33 140 
33 150 
33 156 
33 163 
33 164 
34 35 
34 36 
34 37 
34 38 
34 39 
34 40 
34 47 
34 60 
34 62 
34 72 
34 73 
34 86 
34 90 
34 93 
34 99 
34 107 
34 112 
34 121 
34 125 
34 135 
34 138 
34 151 
34 154 
34 164 
34 165 
35 36 
35 37 
35 38 
35 39 
35 48 
35 51 
35 55 
35 61 
35 74 
35 75 
35 82 
35 87 
35 96 
35 100 
35 113 
35 115 
35 119 
35 126 
35 138 
35 139 
35 150 
35 152 
35 162 
35 165 
36 37 
36 38 
36 39 
36 48 
36 49 
36 60 
36 62 
36 66 
36 75 
36 84 
36 88 
36 101 
36 102 
36 108 
36 114 
36 127 
36 130 
36 132 
36 140 
36 146 
36 153 
36 166 
36 168 
37 38 
37 39 
37 47 
37 50 
37 54 
37 63 
37 71 
37 76 
37 81 
37 89 
37 100 
37 102 
37 115 
37 117 
37 127 
37 128 
37 134 
37 141 
37 144 
37 154 
37 163 
37 167 
38 39 
38 46 
38 51 
38 57 
38 64 
38 73 
38 77 
38 80 
38 90 
38 101 
38 103 
38 110 
38 116 
38 118 
38 129 
38 142 
38 143 
38 152 
38 155 
38 167 
38 168 
39 41 
39 52 
39 63 
39 65 
39 74 
39 78 
39 86 
39 91 
39 94 
39 104 
39 111 
39 117 
39 122 
39 130 
39 131 
39 143 
39 147 
39 156 
39 166 
39 169 
40 41 
40 42 
40 43 
40 44 
40 45 
40 46 
40 47 
40 48 
40 49 
40 50 
40 51 
40 52 
40 53 
40 62 
40 66 
40 72 
40 79 
40 90 
40 92 
40 93 
40 105 
40 107 
40 118 
40 121 
40 131 
40 135 
40 144 
40 154 
40 157 
40 165 
41 42 
41 43 
41 44 
41 45 
41 46 
41 47 
41 48 
41 49 
41 50 
41 51 
41 52 
41 54 
41 63 
41 67 
41 74 
41 80 
41 86 
41 93 
41 94 
41 106 
41 111 
41 119 
41 122 
41 131 
41 132 
41 145 
41 147 
41 158 
41 166 
42 43 
42 44 
42 45 
42 46 
42 47 
42 48 
42 49 
42 50 
42 51 
42 52 
42 55 
42 65 
42 68 
42 77 
42 81 
42 83 
42 94 
42 99 
42 106 
42 107 
42 120 
42 124 
42 133 
42 141 
42 146 
42 149 
42 157 
42 159 
43 44 
43 45 
43 46 
43 47 
43 48 
43 49 
43 50 
43 51 
43 52 
43 53 
43 56 
43 69 
43 70 
43 82 
43 91 
43 95 
43 97 
43 108 
43 114 
43 121 
43 128 
43 134 
43 142 
43 147 
43 151 
43 159 
43 160 
44 45 
44 46 
44 47 
44 48 
44 49 
44 50 
44 51 
44 52 
44 57 
44 58 
44 69 
44 70 
44 83 
44 89 
44 96 
44 103 
44 109 
44 113 
44 120 
44 122 
44 135 
44 140 
44 148 
44 156 
44 161 
44 164 
45 46 
45 47 
45 48 
45 49 
45 50 
45 51 
45 52 
45 56 
45 58 
45 68 
45 71 
45 84 
45 88 
45 97 
45 98 
45 105 
45 110 
45 123 
45 129 
45 136 
45 139 
45 145 
45 149 
45 162 
45 169 
46 47 
46 48 
46 49 
46 50 
46 51 
46 52 
46 57 
46 59 
46 72 
46 73 
46 80 
46 85 
46 98 
46 101 
46 110 
46 111 
46 118 
46 124 
46 137 
46 143 
46 150 
46 152 
46 163 
46 167 
47 48 
47 49 
47 50 
47 51 
47 52 
47 54 
47 60 
47 71 
47 73 
47 81 
47 86 
47 99 
47 100 
47 112 
47 117 
47 125 
47 127 
47 134 
47 138 
47 144 
47 151 
47 163 
47 164 
48 49 
48 50 
48 51 
48 52 
48 60 
48 61 
48 66 
48 74 
48 84 
48 87 
48 100 
48 102 
48 108 
48 113 
48 126 
48 130 
48 132 
48 139 
48 146 
48 152 
48 165 
48 168 
49 50 
49 51 
49 52 
49 62 
49 64 
49 75 
49 76 
49 87 
49 88 
49 101 
49 104 
49 112 
49 114 
49 123 
49 127 
49 137 
49 140 
49 148 
49 153 
49 160 
49 166 
50 51 
50 52 
50 61 
50 63 
50 76 
50 78 
50 85 
50 89 
50 92 
50 102 
50 109 
50 115 
50 125 
50 128 
50 133 
50 141 
50 154 
50 155 
50 158 
50 167 
51 52 
51 55 
51 64 
51 75 
51 77 
51 82 
51 90 
51 96 
51 103 
51 115 
51 116 
51 119 
51 129 
51 138 
51 142 
51 150 
51 155 
51 162 
51 168 
52 59 
52 65 
52 67 
52 78 
52 79 
52 91 
52 95 
52 104 
52 116 
52 117 
52 126 
52 130 
52 136 
52 143 
52 153 
52 156 
52 161 
52 169 
53 54 
53 55 
53 56 
53 57 
53 58 
53 59 
53 60 
53 61 
53 62 
53 63 
53 64 
53 65 
53 66 
53 70 
53 79 
53 91 
53 92 
53 97 
53 105 
53 114 
53 118 
53 128 
53 131 
53 142 
53 144 
53 151 
53 157 
53 159 
54 55 
54 56 
54 57 
54 58 
54 59 
54 60 
54 61 
54 62 
54 63 
54 64 
54 65 
54 67 
54 71 
54 80 
54 81 
54 93 
54 100 
54 106 
54 117 
54 119 
54 127 
54 132 
54 134 
54 144 
54 145 
54 158 
54 163 
55 56 
55 57 
55 58 
55 59 
55 60 
55 61 
55 62 
55 63 
55 64 
55 65 
55 68 
55 75 
55 81 
55 82 
55 94 
55 96 
55 107 
55 115 
55 119 
55 120 
55 133 
55 138 
55 146 
55 150 
55 159 
55 162 
56 57 
56 58 
56 59 
56 60 
56 61 
56 62 
56 63 
56 64 
56 65 
56 68 
56 69 
56 82 
56 88 
56 95 
56 98 
56 105 
56 108 
56 121 
56 129 
56 134 
56 139 
56 145 
56 147 
56 160 
56 169 
57 58 
57 59 
57 60 
57 61 
57 62 
57 63 
57 64 
57 65 
57 70 
57 73 
57 80 
57 83 
57 96 
57 101 
57 109 
57 110 
57 118 
57 122 
57 135 
57 143 
57 148 
57 152 
57 161 
57 167 
58 59 
58 60 
58 61 
58 62 
58 63 
58 64 
58 65 
58 69 
58 71 
58 84 
58 89 
58 97 
58 103 
58 110 
58 113 
58 120 
58 123 
58 136 
58 140 
58 149 
58 156 
58 162 
58 164 
59 60 
59 61 
59 62 
59 63 
59 64 
59 65 
59 67 
59 72 
59 79 
59 85 
59 95 
59 98 
59 111 
59 116 
59 124 
59 126 
59 136 
59 137 
59 150 
59 153 
59 161 
59 163 
60 61 
60 62 
60 63 
60 64 
60 65 
60 66 
60 73 
60 84 
60 86 
60 99 
60 102 
60 108 
60 112 
60 125 
60 130 
60 132 
60 138 
60 146 
60 151 
60 164 
60 168 
61 62 
61 63 
61 64 
61 65 
61 74 
61 78 
61 85 
61 87 
61 92 
61 100 
61 109 
61 113 
61 125 
61 126 
61 133 
61 139 
61 152 
61 155 
61 158 
61 165 
62 63 
62 64 
62 65 
62 72 
62 75 
62 88 
62 90 
62 93 
62 101 
62 107 
62 114 
62 121 
62 127 
62 135 
62 140 
62 153 
62 154 
62 165 
62 166 
63 64 
63 65 
63 74 
63 76 
63 86 
63 89 
63 94 
63 102 
63 111 
63 115 
63 122 
63 128 
63 131 
63 141 
63 147 
63 154 
63 166 
63 167 
64 65 
64 76 
64 77 
64 87 
64 90 
64 103 
64 104 
64 112 
64 116 
64 123 
64 129 
64 137 
64 142 
64 148 
64 155 
64 160 
64 168 
65 77 
65 78 
65 83 
65 91 
65 99 
65 104 
65 106 
65 117 
65 124 
65 130 
65 141 
65 143 
65 149 
65 156 
65 157 
65 169 
66 67 
66 68 
66 69 
66 70 
66 71 
66 72 
66 73 
66 74 
66 75 
66 76 
66 77 
66 78 
66 79 
66 84 
66 92 
66 102 
66 105 
66 108 
66 118 
66 130 
66 131 
66 132 
66 144 
66 146 
66 157 
66 168 
67 68 
67 69 
67 70 
67 71 
67 72 
67 73 
67 74 
67 75 
67 76 
67 77 
67 78 
67 79 
67 80 
67 93 
67 95 
67 106 
67 116 
67 119 
67 126 
67 132 
67 136 
67 145 
67 153 
67 158 
67 161 
68 69 
68 70 
68 71 
68 72 
68 73 
68 74 
68 75 
68 76 
68 77 
68 78 
68 81 
68 88 
68 94 
68 98 
68 105 
68 107 
68 120 
68 129 
68 133 
68 139 
68 145 
68 146 
68 159 
68 169 
69 70 
69 71 
69 72 
69 73 
69 74 
69 75 
69 76 
69 77 
69 78 
69 82 
69 89 
69 95 
69 103 
69 108 
69 113 
69 120 
69 121 
69 134 
69 140 
69 147 
69 156 
69 160 
69 164 
70 71 
70 72 
70 73 
70 74 
70 75 
70 76 
70 77 
70 78 
70 83 
70 91 
70 96 
70 97 
70 109 
70 114 
70 122 
70 128 
70 135 
70 142 
70 148 
70 151 
70 159 
70 161 
71 72 
71 73 
71 74 
71 75 
71 76 
71 77 
71 78 
71 81 
71 84 
71 97 
71 100 
71 110 
71 117 
71 123 
71 127 
71 134 
71 136 
71 144 
71 149 
71 162 
71 163 
72 73 
72 74 
72 75 
72 76 
72 77 
72 78 
72 85 
72 90 
72 93 
72 98 
72 107 
72 111 
72 121 
72 124 
72 135 
72 137 
72 150 
72 154 
72 163 
72 165 
73 74 
73 75 
73 76 
73 77 
73 78 
73 80 
73 86 
73 99 
73 101 
73 110 
73 112 
73 118 
73 125 
73 138 
73 143 
73 151 
73 152 
73 164 
73 167 
74 75 
74 76 
74 77 
74 78 
74 86 
74 87 
74 94 
74 100 
74 111 
74 113 
74 122 
74 126 
74 131 
74 139 
74 147 
74 152 
74 165 
74 166 
75 76 
75 77 
75 78 
75 82 
75 88 
75 96 
75 101 
75 114 
75 115 
75 119 
75 127 
75 138 
75 140 
75 150 
75 153 
75 162 
75 166 
76 77 
76 78 
76 87 
76 89 
76 102 
76 104 
76 112 
76 115 
76 123 
76 128 
76 137 
76 141 
76 148 
76 154 
76 160 
76 167 
77 78 
77 83 
77 90 
77 99 
77 103 
77 106 
77 116 
77 124 
77 129 
77 141 
77 142 
77 149 
77 155 
77 157 
77 168 
78 85 
78 91 
78 92 
78 104 
78 109 
78 117 
78 125 
78 130 
78 133 
78 143 
78 155 
78 156 
78 158 
78 169 
79 80 
79 81 
79 82 
79 83 
79 84 
79 85 
79 86 
79 87 
79 88 
79 89 
79 90 
79 91 
79 92 
79 95 
79 105 
79 116 
79 118 
79 126 
79 131 
79 136 
79 144 
79 153 
79 157 
79 161 
80 81 
80 82 
80 83 
80 84 
80 85 
80 86 
80 87 
80 88 
80 89 
80 90 
80 91 
80 93 
80 101 
80 106 
80 110 
80 118 
80 119 
80 132 
80 143 
80 145 
80 152 
80 158 
80 167 
81 82 
81 83 
81 84 
81 85 
81 86 
81 87 
81 88 
81 89 
81 90 
81 91 
81 94 
81 100 
81 107 
81 117 
81 120 
81 127 
81 133 
81 134 
81 144 
81 146 
81 159 
81 163 
82 83 
82 84 
82 85 
82 86 
82 87 
82 88 
82 89 
82 90 
82 91 
82 95 
82 96 
82 108 
82 115 
82 119 
82 121 
82 134 
82 138 
82 147 
82 150 
82 160 
82 162 
83 84 
83 85 
83 86 
83 87 
83 88 
83 89 
83 90 
83 91 
83 96 
83 99 
83 106 
83 109 
83 122 
83 124 
83 135 
83 141 
83 148 
83 149 
83 157 
83 161 
84 85 
84 86 
84 87 
84 88 
84 89 
84 90 
84 91 
84 97 
84 102 
84 108 
84 110 
84 123 
84 130 
84 132 
84 136 
84 146 
84 149 
84 162 
84 168 
85 86 
85 87 
85 88 
85 89 
85 90 
85 91 
85 92 
85 98 
85 109 
85 111 
85 124 
85 125 
85 133 
85 137 
85 150 
85 155 
85 158 
85 163 
86 87 
86 88 
86 89 
86 90 
86 91 
86 94 
86 99 
86 111 
86 112 
86 122 
86 125 
86 131 
86 138 
86 147 
86 151 
86 164 
86 166 
87 88 
87 89 
87 90 
87 91 
87 100 
87 104 
87 112 
87 113 
87 123 
87 126 
87 137 
87 139 
87 148 
87 152 
87 160 
87 165 
88 89 
88 90 
88 91 
88 98 
88 101 
88 105 
88 114 
88 127 
88 129 
88 139 
88 140 
88 145 
88 153 
88 166 
88 169 
89 90 
89 91 
89 102 
89 103 
89 113 
89 115 
89 120 
89 128 
89 140 
89 141 
89 154 
89 156 
89 164 
89 167 
90 91 
90 93 
90 103 
90 107 
90 116 
90 121 
90 129 
90 135 
90 142 
90 154 
90 155 
90 165 
90 168 
91 97 
91 104 
91 114 
91 117 
91 128 
91 130 
91 142 
91 143 
91 151 
91 156 
91 159 
91 169 
92 93 
92 94 
92 95 
92 96 
92 97 
92 98 
92 99 
92 100 
92 101 
92 102 
92 103 
92 104 
92 105 
92 109 
92 118 
92 125 
92 131 
92 133 
92 144 
92 155 
92 157 
92 158 
93 94 
93 95 
93 96 
93 97 
93 98 
93 99 
93 100 
93 101 
93 102 
93 103 
93 104 
93 106 
93 107 
93 119 
93 121 
93 132 
93 135 
93 145 
93 154 
93 158 
93 165 
94 95 
94 96 
94 97 
94 98 
94 99 
94 100 
94 101 
94 102 
94 103 
94 104 
94 107 
94 111 
94 120 
94 122 
94 131 
94 133 
94 146 
94 147 
94 159 
94 166 
95 96 
95 97 
95 98 
95 99 
95 100 
95 101 
95 102 
95 103 
95 104 
95 108 
95 116 
95 121 
95 126 
95 134 
95 136 
95 147 
95 153 
95 160 
95 161 
96 97 
96 98 
96 99 
96 100 
96 101 
96 102 
96 103 
96 104 
96 109 
96 115 
96 119 
96 122 
96 135 
96 138 
96 148 
96 150 
96 161 
96 162 
97 98 
97 99 
97 100 
97 101 
97 102 
97 103 
97 104 
97 110 
97 114 
97 123 
97 128 
97 136 
97 142 
97 149 
97 151 
97 159 
97 162 
98 99 
98 100 
98 101 
98 102 
98 103 
98 104 
98 105 
98 111 
98 124 
98 129 
98 137 
98 139 
98 145 
98 150 
98 163 
98 169 
99 100 
99 101 
99 102 
99 103 
99 104 
99 106 
99 112 
99 124 
99 125 
99 138 
99 141 
99 149 
99 151 
99 157 
99 164 
100 101 
100 102 
100 103 
100 104 
100 113 
100 117 
100 126 
100 127 
100 134 
100 139 
100 144 
100 152 
100 163 
100 165 
101 102 
101 103 
101 104 
101 110 
101 114 
101 118 
101 127 
101 140 
101 143 
101 152 
101 153 
101 166 
101 167 
102 103 
102 104 
102 108 
102 115 
102 128 
102 130 
102 132 
102 141 
102 146 
102 154 
102 167 
102 168 
103 104 
103 113 
103 116 
103 120 
103 129 
103 140 
103 142 
103 155 
103 156 
103 164 
103 168 
104 112 
104 117 
104 123 
104 130 
104 137 
104 143 
104 148 
104 156 
104 160 
104 169 
105 106 
105 107 
105 108 
105 109 
105 110 
105 111 
105 112 
105 113 
105 114 
105 115 
105 116 
105 117 
105 118 
105 129 
105 131 
105 139 
105 144 
105 145 
105 157 
105 169 
106 107 
106 108 
106 109 
106 110 
106 111 
106 112 
106 113 
106 114 
106 115 
106 116 
106 117 
106 119 
106 124 
106 132 
106 141 
106 145 
106 149 
106 157 
106 158 
107 108 
107 109 
107 110 
107 111 
107 112 
107 113 
107 114 
107 115 
107 116 
107 117 
107 120 
107 121 
107 133 
107 135 
107 146 
107 154 
107 159 
107 165 
108 109 
108 110 
108 111 
108 112 
108 113 
108 114 
108 115 
108 116 
108 117 
108 121 
108 130 
108 132 
108 134 
108 146 
108 147 
108 160 
108 168 
109 110 
109 111 
109 112 
109 113 
109 114 
109 115 
109 116 
109 117 
109 122 
109 125 
109 133 
109 135 
109 148 
109 155 
109 158 
109 161 
110 111 
110 112 
110 113 
110 114 
110 115 
110 116 
110 117 
110 118 
110 123 
110 136 
110 143 
110 149 
110 152 
110 162 
110 167 
111 112 
111 113 
111 114 
111 115 
111 116 
111 117 
111 122 
111 124 
111 131 
111 137 
111 147 
111 150 
111 163 
111 166 
112 113 
112 114 
112 115 
112 116 
112 117 
112 123 
112 125 
112 137 
112 138 
112 148 
112 151 
112 160 
112 164 
113 114 
113 115 
113 116 
113 117 
113 120 
113 126 
113 139 
113 140 
113 152 
113 156 
113 164 
113 165 
114 115 
114 116 
114 117 
114 127 
114 128 
114 140 
114 142 
114 151 
114 153 
114 159 
114 166 
115 116 
115 117 
115 119 
115 128 
115 138 
115 141 
115 150 
115 154 
115 162 
115 167 
116 117 
116 126 
116 129 
116 136 
116 142 
116 153 
116 155 
116 161 
116 168 
117 127 
117 130 
117 134 
117 143 
117 144 
117 156 
117 163 
117 169 
118 119 
118 120 
118 121 
118 122 
118 123 
118 124 
118 125 
118 126 
118 127 
118 128 
118 129 
118 130 
118 131 
118 143 
118 144 
118 152 
118 157 
118 167 
119 120 
119 121 
119 122 
119 123 
119 124 
119 125 
119 126 
119 127 
119 128 
119 129 
119 130 
119 132 
119 138 
119 145 
119 150 
119 158 
119 162 
120 121 
120 122 
120 123 
120 124 
120 125 
120 126 
120 127 
120 128 
120 129 
120 130 
120 133 
120 140 
120 146 
120 156 
120 159 
120 164 
121 122 
121 123 
121 124 
121 125 
121 126 
121 127 
121 128 
121 129 
121 130 
121 134 
121 135 
121 147 
121 154 
121 160 
121 165 
122 123 
122 124 
122 125 
122 126 
122 127 
122 128 
122 129 
122 130 
122 131 
122 135 
122 147 
122 148 
122 161 
122 166 
123 124 
123 125 
123 126 
123 127 
123 128 
123 129 
123 130 
123 136 
123 137 
123 148 
123 149 
123 160 
123 162 
124 125 
124 126 
124 127 
124 128 
124 129 
124 130 
124 137 
124 141 
124 149 
124 150 
124 157 
124 163 
125 126 
125 127 
125 128 
125 129 
125 130 
125 133 
125 138 
125 151 
125 155 
125 158 
125 164 
126 127 
126 128 
126 129 
126 130 
126 136 
126 139 
126 152 
126 153 
126 161 
126 165 
127 128 
127 129 
127 130 
127 134 
127 140 
127 144 
127 153 
127 163 
127 166 
128 129 
128 130 
128 141 
128 142 
128 151 
128 154 
128 159 
128 167 
129 130 
129 139 
129 142 
129 145 
129 155 
129 168 
129 169 
130 132 
130 143 
130 146 
130 156 
130 168 
130 169 
131 132 
131 133 
131 134 
131 135 
131 136 
131 137 
131 138 
131 139 
131 140 
131 141 
131 142 
131 143 
131 144 
131 147 
131 157 
131 166 
132 133 
132 134 
132 135 
132 136 
132 137 
132 138 
132 139 
132 140 
132 141 
132 142 
132 143 
132 145 
132 146 
132 158 
132 168 
133 134 
133 135 
133 136 
133 137 
133 138 
133 139 
133 140 
133 141 
133 142 
133 143 
133 146 
133 155 
133 158 
133 159 
134 135 
134 136 
134 137 
134 138 
134 139 
134 140 
134 141 
134 142 
134 143 
134 144 
134 147 
134 160 
134 163 
135 136 
135 137 
135 138 
135 139 
135 140 
135 141 
135 142 
135 143 
135 148 
135 154 
135 161 
135 165 
136 137 
136 138 
136 139 
136 140 
136 141 
136 142 
136 143 
136 149 
136 153 
136 161 
136 162 
137 138 
137 139 
137 140 
137 141 
137 142 
137 143 
137 148 
137 150 
137 160 
137 163 
138 139 
138 140 
138 141 
138 142 
138 143 
138 150 
138 151 
138 162 
138 164 
139 140 
139 141 
139 142 
139 143 
139 145 
139 152 
139 165 
139 169 
140 141 
140 142 
140 143 
140 153 
140 156 
140 164 
140 166 
141 142 
141 143 
141 149 
141 154 
141 157 
141 167 
142 143 
142 151 
142 155 
142 159 
142 168 
143 152 
143 156 
143 167 
143 169 
144 145 
144 146 
144 147 
144 148 
144 149 
144 150 
144 151 
144 152 
144 153 
144 154 
144 155 
144 156 
144 157 
144 163 
145 146 
145 147 
145 148 
145 149 
145 150 
145 151 
145 152 
145 153 
145 154 
145 155 
145 156 
145 158 
145 169 
146 147 
146 148 
146 149 
146 150 
146 151 
146 152 
146 153 
146 154 
146 155 
146 156 
146 159 
146 168 
147 148 
147 149 
147 150 
147 151 
147 152 
147 153 
147 154 
147 155 
147 156 
147 160 
147 166 
148 149 
148 150 
148 151 
148 152 
148 153 
148 154 
148 155 
148 156 
148 160 
148 161 
149 150 
149 151 
149 152 
149 153 
149 154 
149 155 
149 156 
149 157 
149 162 
150 151 
150 152 
150 153 
150 154 
150 155 
150 156 
150 162 
150 163 
151 152 
151 153 
151 154 
151 155 
151 156 
151 159 
151 164 
152 153 
152 154 
152 155 
152 156 
152 165 
152 167 
153 154 
153 155 
153 156 
153 161 
153 166 
154 155 
154 156 
154 165 
154 167 
155 156 
155 158 
155 168 
156 164 
156 169 
157 158 
157 159 
157 160 
157 161 
157 162 
157 163 
157 164 
157 165 
157 166 
157 167 
157 168 
157 169 
158 159 
158 160 
158 161 
158 162 
158 163 
158 164 
158 165 
158 166 
158 167 
158 168 
158 169 
159 160 
159 161 
159 162 
159 163 
159 164 
159 165 
159 166 
159 167 
159 168 
159 169 
160 161 
160 162 
160 163 
160 164 
160 165 
160 166 
160 167 
160 168 
160 169 
161 162 
161 163 
161 164 
161 165 
161 166 
161 167 
161 168 
161 169 
162 163 
162 164 
162 165 
162 166 
162 167 
162 168 
162 169 
163 164 
163 165 
163 166 
163 167 
163 168 
163 169 
164 165 
164 166 
164 167 
164 168 
164 169 
165 166 
165 167 
165 168 
165 169 
166 167 
166 168 
166 169 
167 168 
167 169 
168 169 
